
Gurobi 6.5.2 (win64) logging started 07/24/16 17:45:36


Gurobi 6.5.2 (win64) logging started 07/24/16 17:45:36

Optimize a model with 3695 rows, 823 columns and 9316 nonzeros
Coefficient statistics:
  Matrix range    [6e-08, 4e+02]
  Objective range [1e+00, 1e+00]
  Bounds range    [1e+00, 1e+00]
  RHS range       [6e-06, 3e+03]
Presolve removed 2999 rows and 90 columns
Presolve time: 0.02s
Presolved: 696 rows, 733 columns, 3407 nonzeros
Variable types: 285 continuous, 448 integer (448 binary)

Root relaxation: objective 1.858904e+01, 1857 iterations, 0.05 seconds

    Nodes    |    Current Node    |     Objective Bounds      |     Work
 Expl Unexpl |  Obj  Depth IntInf | Incumbent    BestBd   Gap | It/Node Time

     0     0   18.58904    0  135          -   18.58904      -     -    0s
H    0     0                      20.0007276   18.58904  7.06%     -    0s
     0     0   19.40431    0  115   20.00073   19.40431  2.98%     -    0s
H    0     0                      19.9861753   19.40431  2.91%     -    0s
     0     0   19.40646    0  120   19.98618   19.40646  2.90%     -    0s
     0     0   19.40646    0  109   19.98618   19.40646  2.90%     -    0s
     0     0   19.40646    0  104   19.98618   19.40646  2.90%     -    0s
     0     0   19.44903    0  115   19.98618   19.44903  2.69%     -    0s
     0     0   19.45383    0  115   19.98618   19.45383  2.66%     -    0s
     0     0   19.45593    0  114   19.98618   19.45593  2.65%     -    0s
     0     0   19.45602    0  110   19.98618   19.45602  2.65%     -    0s
     0     0   19.45803    0  112   19.98618   19.45803  2.64%     -    0s
     0     0   19.45803    0  111   19.98618   19.45803  2.64%     -    0s
     0     0   19.45803    0  114   19.98618   19.45803  2.64%     -    0s
H    0     0                      19.9658804   19.45803  2.54%     -    0s
     0     0   19.45803    0   93   19.96588   19.45803  2.54%     -    0s
     0     2   19.45803    0   93   19.96588   19.45803  2.54%     -    0s
*   22    23              15      19.8796970   19.53813  1.72%  11.4    0s
*  767   171              15      19.8751855   19.70811  0.84%  10.5    0s
*  770   166              14      19.8703866   19.70811  0.82%  10.5    0s
H  991   145                      19.8586601   19.73260  0.63%  10.2    0s
* 1001   145              14      19.8537216   19.73260  0.61%  10.2    0s
H 1397     2                      19.8527650   19.83557  0.09%  10.0    0s

Cutting planes:
  Gomory: 2
  MIR: 16

Explored 1404 nodes (17392 simplex iterations) in 0.62 seconds
Thread count was 8 (of 8 available processors)

Optimal solution found (tolerance 1.00e-04)
Best objective 1.985276499823e+01, best bound 1.985080489272e+01, gap 0.0099%

Wrote requested result file 'H1\instance25\\Results25E_Sol6.lp'

